words_hard_train/4519.qaiger
aag 38 10 0 1 28
2
4
8
12
16
20
22
32
48
50
77
6 3 5
10 6 9
14 10 13
18 14 17
24 21 23
26 20 22
28 25 27
30 19 29
34 32 16
36 34 2
38 8 4
40 38 12
42 36 40
44 42 20
46 45 27
52 48 50
54 49 51
56 53 55
58 42 22
60 56 59
62 47 60
64 31 63
66 28 43
68 46 59
70 69 57
72 71 61
74 67 73
76 64 74
i0 1 x1[4]
i1 1 x1[5]
i2 1 x1[2]
i3 1 x1[1]
i4 1 x1[3]
i5 2 y1[0]
i6 1 x1[6]
i7 1 x1[0]
i8 1 x1[7]
i9 2 y1[1]
o0 bv[0]
c
simplified
  <
    -126
    add
      add
        1
        1 x1
      << 6
        2 y1
