words_hard_train/4519.qaiger.qdimacs
p cnf 38 85
a 1 2 4 6 8 11 16 24 0
e 3 5 7 9 10 12 13 14 15 17 18 19 20 21 22 23 25 26 27 28 29 30 31 32 33 34 35 36 37 38 0
1 2 3 0
-1 -3 0
-2 -3 0
-3 4 5 0
3 -5 0
-4 -5 0
-5 6 7 0
5 -7 0
-6 -7 0
-7 8 9 0
7 -9 0
-8 -9 0
10 11 12 0
-10 -12 0
-11 -12 0
-10 -11 13 0
10 -13 0
11 -13 0
12 13 14 0
-12 -14 0
-13 -14 0
9 14 15 0
-9 -15 0
-14 -15 0
-16 -8 17 0
16 -17 0
8 -17 0
-17 -1 18 0
17 -18 0
1 -18 0
-4 -2 19 0
4 -19 0
2 -19 0
-19 -6 20 0
19 -20 0
6 -20 0
-18 -20 21 0
18 -21 0
20 -21 0
-21 -10 22 0
21 -22 0
10 -22 0
22 13 23 0
-22 -23 0
-13 -23 0
-24 -25 26 0
24 -26 0
25 -26 0
24 25 27 0
-24 -27 0
-25 -27 0
26 27 28 0
-26 -28 0
-27 -28 0
-21 -11 29 0
21 -29 0
11 -29 0
-28 29 30 0
28 -30 0
-29 -30 0
23 -30 31 0
-23 -31 0
30 -31 0
15 31 32 0
-15 -32 0
-31 -32 0
-14 21 33 0
14 -33 0
-21 -33 0
-23 29 34 0
23 -34 0
-29 -34 0
34 28 35 0
-34 -35 0
-28 -35 0
35 30 36 0
-35 -36 0
-30 -36 0
33 36 37 0
-33 -37 0
-36 -37 0
-32 -37 38 0
32 -38 0
37 -38 0
-38 0
